\ENCODING=ISO-8859-1
\Problem name: ilog.cplex

Maximize
 obj: 41850 x(0)#0 + 38261 x(1)#1 + 23800 x(2)#2 + 21697 x(3)#3 + 7074 x(4)#4
      + 5587 x(5)#5 + 5560 x(6)#6 + 5500 x(7)#7 + 3450 x(8)#8 + 2391 x(9)#9
      + 761 x(10)#10 + 460 x(11)#11 + 367 x(12)#12 + 24785 x(13)#13
      + 47910 x(14)#14 + 30250 x(15)#15 + 107200 x(16)#16 + 4235 x(17)#17
      + 9835 x(18)#18 + 9262 x(19)#19 + 15000 x(20)#20 + 6399 x(21)#21
      + 6155 x(22)#22 + 10874 x(23)#23 + 37100 x(24)#24 + 27040 x(25)#25
      + 4117 x(26)#26 + 32240 x(27)#27 + 1600 x(28)#28 + 4500 x(29)#29
      + 70610 x(30)#30 + 6570 x(31)#31 + 15290 x(32)#32 + 23840 x(33)#33
      + 16500 x(34)#34 + 7010 x(35)#35 + 16020 x(36)#36 + 8000 x(37)#37
      + 31026 x(38)#38 + 2568 x(39)#39 + 2365 x(40)#40 + 4350 x(41)#41
      + 1972 x(42)#42 + 4975 x(43)#43 + 29400 x(44)#44 + 7471 x(45)#45
      + 2700 x(46)#46 + 3840 x(47)#47 + 22400 x(48)#48 + 3575 x(49)#49
      + 13500 x(50)#50 + 1125 x(51)#51 + 11950 x(52)#52 + 12753 x(53)#53
      + 10568 x(54)#54 + 15600 x(55)#55 + 20652 x(56)#56 + 13150 x(57)#57
      + 2900 x(58)#58 + 1790 x(59)#59 + 4970 x(60)#60 + 5770 x(61)#61
      + 8180 x(62)#62 + 2450 x(63)#63 + 7140 x(64)#64 + 12470 x(65)#65
      + 6010 x(66)#66 + 16000 x(67)#67 + 11100 x(68)#68 + 11093 x(69)#69
      + 4685 x(70)#70 + 2590 x(71)#71 + 11500 x(72)#72 + 5820 x(73)#73
      + 2842 x(74)#74 + 5000 x(75)#75 + 3300 x(76)#76 + 2800 x(77)#77
      + 5420 x(78)#78 + 900 x(79)#79 + 13300 x(80)#80 + 8450 x(81)#81
      + 5300 x(82)#82 + 750 x(83)#83 + 1435 x(84)#84 + 2100 x(85)#85
      + 7215 x(86)#86 + 2605 x(87)#87 + 2422 x(88)#88 + 5500 x(89)#89
      + 8550 x(90)#90 + 2700 x(91)#91 + 540 x(92)#92 + 2550 x(93)#93
      + 2450 x(94)#94 + 725 x(95)#95 + 445 x(96)#96 + 700 x(97)#97
      + 1720 x(98)#98 + 2675 x(99)#99 + 220 x(100)#100 + 300 x(101)#101
      + 405 x(102)#102 + 150 x(103)#103 + 70 x(104)#104
Subject To
 c1: 75 x(0)#0 + 40 x(1)#1 + 365 x(2)#2 + 95 x(3)#3 + 25 x(4)#4 + 17 x(5)#5
     + 125 x(6)#6 + 20 x(7)#7 + 22 x(8)#8 + 84 x(9)#9 + 75 x(10)#10
     + 50 x(11)#11 + 15 x(12)#12 + 12 x(15)#15 + 10 x(17)#17 + 50 x(19)#19
     + 10 x(22)#22 + 50 x(25)#25 + 60 x(26)#26 + 150 x(27)#27 + 75 x(30)#30
     + 102 x(32)#32 + 40 x(35)#35 + 60 x(36)#36 + 165 x(38)#38 + 45 x(42)#42
     + 25 x(46)#46 + 150 x(48)#48 + 158 x(52)#52 + 85 x(54)#54 + 95 x(55)#55
     + 89 x(57)#57 + 20 x(58)#58 + 80 x(65)#65 + 110 x(67)#67 + 15 x(69)#69
     + 60 x(71)#71 + 5 x(72)#72 + 135 x(73)#73 + 25 x(76)#76 + 300 x(78)#78
     + 35 x(79)#79 + 100 x(80)#80 + 25 x(83)#83 + 225 x(86)#86 + 25 x(87)#87
     + 5 x(95)#95 + 60 x(97)#97 + 100 x(99)#99 <= 500
 c2: 5 x(13)#13 + 10 x(14)#14 + 10 x(15)#15 + 50 x(16)#16 + 2 x(17)#17
     + 5 x(18)#18 + 5 x(19)#19 + 10 x(20)#20 + 5 x(21)#21 + 6 x(22)#22
     + 11 x(23)#23 + 41 x(24)#24 + 30 x(25)#25 + 5 x(26)#26 + 40 x(27)#27
     + 2 x(28)#28 + 6 x(29)#29 + 100 x(30)#30 + 10 x(31)#31 + 25 x(32)#32
     + 39 x(33)#33 + 30 x(34)#34 + 13 x(35)#35 + 30 x(36)#36 + 15 x(37)#37
     + 60 x(38)#38 + 5 x(39)#39 + 5 x(40)#40 + 10 x(41)#41 + 5 x(42)#42
     + 15 x(43)#43 + 91 x(44)#44 + 24 x(45)#45 + 10 x(46)#46 + 15 x(47)#47
     + 90 x(48)#48 + 15 x(49)#49 + 60 x(50)#50 + 5 x(51)#51 + 55 x(52)#52
     + 60 x(53)#53 + 50 x(54)#54 + 75 x(55)#55 + 100 x(56)#56 + 65 x(57)#57
     + 15 x(58)#58 + 10 x(59)#59 + 30 x(60)#60 + 35 x(61)#61 + 50 x(62)#62
     + 15 x(63)#63 + 45 x(64)#64 + 80 x(65)#65 + 40 x(66)#66 + 110 x(67)#67
     + 80 x(68)#68 + 80 x(69)#69 + 36 x(70)#70 + 20 x(71)#71 + 90 x(72)#72
     + 50 x(73)#73 + 25 x(74)#74 + 50 x(75)#75 + 35 x(76)#76 + 30 x(77)#77
     + 60 x(78)#78 + 10 x(79)#79 + 150 x(80)#80 + 110 x(81)#81 + 70 x(82)#82
     + 10 x(83)#83 + 20 x(84)#84 + 30 x(85)#85 + 104 x(86)#86 + 40 x(87)#87
     + 40 x(88)#88 + 94 x(89)#89 + 150 x(90)#90 + 50 x(91)#91 + 10 x(92)#92
     + 50 x(93)#93 + 50 x(94)#94 + 16 x(95)#95 + 10 x(96)#96 + 20 x(97)#97
     + 50 x(98)#98 + 90 x(99)#99 + 10 x(100)#100 + 15 x(101)#101
     + 39 x(102)#102 + 20 x(103)#103 + 20 x(104)#104 <= 500
Bounds
 0 <= x(0)#0 <= 1
 0 <= x(1)#1 <= 1
 0 <= x(2)#2 <= 1
 0 <= x(3)#3 <= 1
 0 <= x(4)#4 <= 1
 0 <= x(5)#5 <= 1
 0 <= x(6)#6 <= 1
 0 <= x(7)#7 <= 1
 0 <= x(8)#8 <= 1
 0 <= x(9)#9 <= 1
 0 <= x(10)#10 <= 1
 0 <= x(11)#11 <= 1
 0 <= x(12)#12 <= 1
 0 <= x(13)#13 <= 1
 0 <= x(14)#14 <= 1
 0 <= x(15)#15 <= 1
 0 <= x(16)#16 <= 1
 0 <= x(17)#17 <= 1
 0 <= x(18)#18 <= 1
 0 <= x(19)#19 <= 1
 0 <= x(20)#20 <= 1
 0 <= x(21)#21 <= 1
 0 <= x(22)#22 <= 1
 0 <= x(23)#23 <= 1
 0 <= x(24)#24 <= 1
 0 <= x(25)#25 <= 1
 0 <= x(26)#26 <= 1
 0 <= x(27)#27 <= 1
 0 <= x(28)#28 <= 1
 0 <= x(29)#29 <= 1
 0 <= x(30)#30 <= 1
 0 <= x(31)#31 <= 1
 0 <= x(32)#32 <= 1
 0 <= x(33)#33 <= 1
 0 <= x(34)#34 <= 1
 0 <= x(35)#35 <= 1
 0 <= x(36)#36 <= 1
 0 <= x(37)#37 <= 1
 0 <= x(38)#38 <= 1
 0 <= x(39)#39 <= 1
 0 <= x(40)#40 <= 1
 0 <= x(41)#41 <= 1
 0 <= x(42)#42 <= 1
 0 <= x(43)#43 <= 1
 0 <= x(44)#44 <= 1
 0 <= x(45)#45 <= 1
 0 <= x(46)#46 <= 1
 0 <= x(47)#47 <= 1
 0 <= x(48)#48 <= 1
 0 <= x(49)#49 <= 1
 0 <= x(50)#50 <= 1
 0 <= x(51)#51 <= 1
 0 <= x(52)#52 <= 1
 0 <= x(53)#53 <= 1
 0 <= x(54)#54 <= 1
 0 <= x(55)#55 <= 1
 0 <= x(56)#56 <= 1
 0 <= x(57)#57 <= 1
 0 <= x(58)#58 <= 1
 0 <= x(59)#59 <= 1
 0 <= x(60)#60 <= 1
 0 <= x(61)#61 <= 1
 0 <= x(62)#62 <= 1
 0 <= x(63)#63 <= 1
 0 <= x(64)#64 <= 1
 0 <= x(65)#65 <= 1
 0 <= x(66)#66 <= 1
 0 <= x(67)#67 <= 1
 0 <= x(68)#68 <= 1
 0 <= x(69)#69 <= 1
 0 <= x(70)#70 <= 1
 0 <= x(71)#71 <= 1
 0 <= x(72)#72 <= 1
 0 <= x(73)#73 <= 1
 0 <= x(74)#74 <= 1
 0 <= x(75)#75 <= 1
 0 <= x(76)#76 <= 1
 0 <= x(77)#77 <= 1
 0 <= x(78)#78 <= 1
 0 <= x(79)#79 <= 1
 0 <= x(80)#80 <= 1
 0 <= x(81)#81 <= 1
 0 <= x(82)#82 <= 1
 0 <= x(83)#83 <= 1
 0 <= x(84)#84 <= 1
 0 <= x(85)#85 <= 1
 0 <= x(86)#86 <= 1
 0 <= x(87)#87 <= 1
 0 <= x(88)#88 <= 1
 0 <= x(89)#89 <= 1
 0 <= x(90)#90 <= 1
 0 <= x(91)#91 <= 1
 0 <= x(92)#92 <= 1
 0 <= x(93)#93 <= 1
 0 <= x(94)#94 <= 1
 0 <= x(95)#95 <= 1
 0 <= x(96)#96 <= 1
 0 <= x(97)#97 <= 1
 0 <= x(98)#98 <= 1
 0 <= x(99)#99 <= 1
 0 <= x(100)#100 <= 1
 0 <= x(101)#101 <= 1
 0 <= x(102)#102 <= 1
 0 <= x(103)#103 <= 1
 0 <= x(104)#104 <= 1
Generals
 x(0)#0  x(1)#1  x(2)#2  x(3)#3  x(4)#4  x(5)#5  x(6)#6  x(7)#7  x(8)#8 
 x(9)#9  x(10)#10  x(11)#11  x(12)#12  x(13)#13  x(14)#14  x(15)#15  x(16)#16 
 x(17)#17  x(18)#18  x(19)#19  x(20)#20  x(21)#21  x(22)#22  x(23)#23 
 x(24)#24  x(25)#25  x(26)#26  x(27)#27  x(28)#28  x(29)#29  x(30)#30 
 x(31)#31  x(32)#32  x(33)#33  x(34)#34  x(35)#35  x(36)#36  x(37)#37 
 x(38)#38  x(39)#39  x(40)#40  x(41)#41  x(42)#42  x(43)#43  x(44)#44 
 x(45)#45  x(46)#46  x(47)#47  x(48)#48  x(49)#49  x(50)#50  x(51)#51 
 x(52)#52  x(53)#53  x(54)#54  x(55)#55  x(56)#56  x(57)#57  x(58)#58 
 x(59)#59  x(60)#60  x(61)#61  x(62)#62  x(63)#63  x(64)#64  x(65)#65 
 x(66)#66  x(67)#67  x(68)#68  x(69)#69  x(70)#70  x(71)#71  x(72)#72 
 x(73)#73  x(74)#74  x(75)#75  x(76)#76  x(77)#77  x(78)#78  x(79)#79 
 x(80)#80  x(81)#81  x(82)#82  x(83)#83  x(84)#84  x(85)#85  x(86)#86 
 x(87)#87  x(88)#88  x(89)#89  x(90)#90  x(91)#91  x(92)#92  x(93)#93 
 x(94)#94  x(95)#95  x(96)#96  x(97)#97  x(98)#98  x(99)#99  x(100)#100 
 x(101)#101  x(102)#102  x(103)#103  x(104)#104 
End
